32	0

0	2	2	3
5	1	4
4	1	4
7	2	5	6
9	2	8	9
2	1	7
2	2	8	9
7	1	10
10	1	11
2	1	11
7	2	12	13
4	1	14
10	2	15	17
7	2	15	17
1	2	16	18
8	2	19	20
7	2	18	20
7	2	19	22
6	1	21
6	2	21	22
3	1	23
8	1	23
2	2	24	25
7	1	26
10	2	27	28
3	2	27	28
4	1	29
2	1	29
2	2	30	31
6	1	32
6	1	32
0	0
